p wcnf 199 233 234 
1 148 69 0 
1 164 -35 0 
1 102 82 0 
1 16 -42 0 
1 -95 -17 0 
1 -11 96 0 
1 7 60 0 
1 106 35 0 
1 52 -41 0 
1 -140 154 0 
1 -105 115 0 
1 -97 138 0 
1 -36 -60 0 
1 6 162 0 
1 95 121 0 
1 24 -69 0 
1 -124 116 0 
1 -161 -48 0 
1 -125 -57 0 
1 89 -66 0 
1 -166 89 0 
1 9 149 0 
1 11 -67 0 
1 5 -37 0 
1 71 -35 0 
1 -150 -116 0 
1 -67 21 0 
1 -148 -160 0 
1 -199 64 0 
1 77 -75 0 
1 -129 -185 0 
1 -57 129 0 
1 71 58 0 
1 130 122 0 
1 -79 4 0 
1 39 74 0 
1 -190 78 0 
1 190 -79 0 
1 128 -45 0 
1 21 -68 0 
1 -92 169 0 
1 -83 -111 0 
1 42 -80 0 
1 -154 -131 0 
1 -182 104 0 
1 116 95 0 
1 97 -68 0 
1 -170 99 0 
1 67 99 0 
1 -108 94 0 
1 -68 -50 0 
1 -181 80 0 
1 111 -94 0 
1 -155 -59 0 
1 10 78 0 
1 192 91 0 
1 114 -37 0 
1 -5 54 0 
1 -114 165 0 
1 26 -156 0 
1 -112 53 0 
1 152 -153 0 
1 12 174 0 
1 148 96 0 
1 -52 -32 0 
1 -150 -52 0 
1 -102 196 0 
1 -92 41 0 
1 -193 -173 0 
1 127 -68 0 
1 164 135 0 
1 25 -129 0 
1 -138 22 0 
1 -26 116 0 
1 -18 -170 0 
1 7 -21 0 
1 122 -179 0 
1 84 40 0 
1 175 -36 0 
1 -128 -113 0 
1 -59 1 0 
1 28 -114 0 
1 176 -22 0 
1 82 5 0 
1 119 -181 0 
1 -18 -162 0 
1 188 -112 0 
1 -192 85 0 
1 178 -151 0 
1 79 -145 0 
1 -159 56 0 
1 59 120 0 
1 118 57 0 
1 -124 94 0 
1 -51 -63 0 
1 -119 195 0 
1 108 -192 0 
1 -97 -82 0 
1 -97 -74 0 
1 -41 -24 0 
1 -162 199 0 
1 88 162 0 
1 -3 29 0 
1 -90 -196 0 
1 124 114 0 
1 -130 191 0 
1 193 104 0 
1 98 31 0 
1 -111 -142 0 
1 114 81 0 
1 -165 -19 0 
1 124 97 0 
1 2 40 0 
1 -107 -80 0 
1 -39 78 0 
1 -95 177 0 
1 76 15 0 
1 -47 -20 0 
1 67 -13 0 
1 102 -165 0 
1 84 171 0 
1 -164 37 0 
1 169 -32 0 
1 96 92 0 
1 -76 -190 0 
1 -103 133 0 
1 -98 -82 0 
1 -98 -193 0 
1 197 -37 0 
1 143 135 0 
1 -71 -140 0 
1 197 -14 0 
1 92 -93 0 
1 -176 -183 0 
1 -15 164 0 
1 -48 -173 0 
1 -119 -56 0 
1 -115 12 0 
1 -193 -105 0 
1 9 -18 0 
1 198 -102 0 
1 -172 79 0 
1 122 -182 0 
1 -14 190 0 
1 -131 -185 0 
1 -67 -102 0 
1 174 8 0 
1 -31 -145 0 
1 166 -172 0 
1 39 -50 0 
1 189 98 0 
1 -44 -185 0 
1 -25 71 0 
1 111 -13 0 
1 -50 -30 0 
1 -92 60 0 
1 -17 61 0 
1 -40 46 0 
1 -153 -9 0 
1 100 -93 0 
1 5 32 0 
1 -188 -21 0 
1 -110 130 0 
1 -198 98 0 
1 126 97 0 
1 -170 -111 0 
1 -92 17 0 
1 -24 -27 0 
1 -48 39 0 
1 -85 -191 0 
1 58 -100 0 
1 -40 194 0 
1 -20 137 0 
1 -15 95 0 
1 -44 46 0 
1 -131 -178 0 
1 -103 -39 0 
1 40 -42 0 
1 37 -116 0 
1 61 -14 0 
1 104 59 0 
1 61 -56 0 
1 139 -59 0 
1 89 -163 0 
1 146 47 0 
1 -52 82 0 
1 -124 -98 0 
1 42 102 0 
1 -28 -185 0 
1 142 186 0 
1 44 -129 0 
1 -4 117 0 
1 28 -82 0 
1 -188 -142 0 
1 -52 192 0 
1 -25 153 0 
1 -125 116 0 
1 192 102 0 
1 22 -32 0 
1 -11 73 0 
1 -122 86 0 
1 -10 74 0 
1 162 28 0 
1 -146 -44 0 
1 25 53 0 
1 -127 131 0 
1 -21 59 0 
1 136 -180 0 
1 162 87 0 
1 -34 -14 0 
1 -5 35 0 
1 10 -32 0 
1 74 166 0 
1 3 -17 0 
1 3 156 0 
1 -82 50 0 
1 -194 -1 0 
1 -88 -163 0 
1 -38 72 0 
1 -122 -165 0 
1 -16 -137 0 
1 137 156 0 
1 184 179 0 
1 -21 -196 0 
1 -61 23 0 
1 -110 65 0 
1 194 7 0 
1 -157 -136 0 
1 79 50 0 
1 -195 -104 0 
1 56 -156 0 
1 -184 49 0 
1 -100 66 0 
